
Gurobi 9.1.2 (win64) logging started Tue Dec  7 13:38:18 2021

Gurobi Optimizer version 9.1.2 build v9.1.2rc0 (win64)
Thread count: 8 physical cores, 8 logical processors, using up to 8 threads
Optimize a model with 1 rows, 34 columns and 33 nonzeros
Model fingerprint: 0xb7613498
Variable types: 1 continuous, 33 integer (33 binary)
Coefficient statistics:
  Matrix range     [1e+00, 1e+01]
  Objective range  [1e+00, 1e+00]
  Bounds range     [3e+01, 3e+01]
  RHS range        [1e+01, 1e+01]
Presolve time: 0.00s
Presolved: 1 rows, 34 columns, 33 nonzeros
Variable types: 1 continuous, 33 integer (33 binary)

Root simplex log...

Iteration    Objective       Primal Inf.    Dual Inf.      Time
       0   -2.7970780e+01   2.611343e-01   0.000000e+00     15s
       4   -2.7970780e+01   0.000000e+00   0.000000e+00     15s

Root relaxation: objective -2.797078e+01, 4 iterations, 0.00 seconds

    Nodes    |    Current Node    |     Objective Bounds      |     Work
 Expl Unexpl |  Obj  Depth IntInf | Incumbent    BestBd   Gap | It/Node Time

     0     0  -27.97078    0    1          -  -27.97078      -     -   14s
H    0     0                       0.1362921  -27.97078      -     -   15s
     0     0  -22.67421    0    4    0.13629  -22.67421      -     -   16s
H    0     0                      -1.3979400  -22.67421  1522%     -   16s
     0     0  -18.21453    0    6   -1.39794  -18.21453  1203%     -   16s
H    0     0                      -1.3979400  -18.21453  1203%     -   17s
     0     0  -16.97689    0    8   -1.39794  -16.97689  1114%     -   17s
     0     0  -16.97119    0    8   -1.39794  -16.97119  1114%     -   17s
     0     0  -15.85079    0    8   -1.39794  -15.85079  1034%     -   17s
     0     0  -15.83754    0    8   -1.39794  -15.83754  1033%     -   17s
     0     0  -15.40309    0    9   -1.39794  -15.40309  1002%     -   17s
     0     0  -15.37935    0    9   -1.39794  -15.37935  1000%     -   17s
     0     0  -15.37870    0    9   -1.39794  -15.37870  1000%     -   17s
     0     0  -15.21239    0    9   -1.39794  -15.21239   988%     -   17s
     0     0  -15.19320    0    7   -1.39794  -15.19320   987%     -   17s
     0     0  -15.19320    0    8   -1.39794  -15.19320   987%     -   17s
     0     0  -15.18698    0    8   -1.39794  -15.18698   986%     -   17s
     0     0  -15.18698    0    8   -1.39794  -15.18698   986%     -   17s
     0     2  -15.18698    0    8   -1.39794  -15.18698   986%     -   17s

Cutting planes:
  Cover: 2
  MIR: 11
  StrongCG: 1
  Relax-and-lift: 1
  Lazy constraints: 16

Explored 65 nodes (237 simplex iterations) in 17.33 seconds
Thread count was 8 (of 8 available processors)

Solution count 2: -1.39794 0.136292 
No other solutions better than -1.39794

Optimal solution found (tolerance 1.00e-04)
Best objective -1.397940008912e+00, best bound -1.397940008912e+00, gap 0.0000%

User-callback calls 302, time in user-callback 21.14 sec
